NAME : tsp20_26.173.tour
COMMENT : Length = 173
COMMENT : Found by LKH [Keld Helsgaun]
TYPE : TOUR
DIMENSION : 20
TOUR_SECTION
1
3
12
14
20
15
10
8
13
19
7
2
5
4
9
11
16
6
17
18
-1
EOF
